(declare-fun var0 () String)
(assert (str.in.re var0 (re.++ (re.union (re.+ (str.to.re "i")) (re.union (str.to.re "j") (str.to.re "kk"))) (re.++ (re.+ (re.union (str.to.re "ggg") (str.to.re "hhh"))) (re.++ (re.* (re.* (str.to.re "ff"))) (re.++ (re.union (re.union (str.to.re "cc") (str.to.re "d")) (re.* (str.to.re "e"))) (re.++ (re.union (re.+ (str.to.re "aaa")) (re.+ (str.to.re "bbb"))) (re.++ (re.union (re.union (str.to.re "77") (str.to.re "88")) (re.* (str.to.re "99"))) (re.++ (re.+ (re.* (str.to.re "6"))) (re.++ (re.union (re.+ (str.to.re "333")) (re.union (str.to.re "444") (str.to.re "55"))) (re.++ (re.union (re.+ (str.to.re "11")) (re.* (str.to.re "22"))) (re.* (re.+ (str.to.re "0"))))))))))))))
(assert (<= 126 (str.len var0)))
(check-sat)